s td 29 4 30
b 1 1 28
b 2 4 13
b 3 10 30
b 4 12 19
b 5 14 19 21
b 6 18 25
b 7 22 26
b 8 13 29
b 9 13 21
b 10 6 11 27
b 11 7 15 18
b 12 15 16 18
b 13 16 18
b 14 2 16
b 15 2 24 27
b 16 11 24 27
b 17 24 27
b 18 9 27 30
b 19 8 17 22
b 20 19 21 22
b 21 21 22 30
b 22 8 27 30
b 23 8 22 23 30
b 24 3 22 23 28
b 25 22 23 28 30
b 26 28 30
b 27 30
b 28 5
b 29 20
1 26
1 28
1 29
2 9
3 27
4 20
5 20
6 13
7 25
8 9
9 21
10 16
11 12
12 13
13 14
14 15
15 17
16 17
17 22
18 22
19 23
20 21
21 25
22 23
23 25
24 25
25 26
26 27
